c Random generated cnf formula, satisfiable: false
p cnf 10 50
1 -9 3 0
-8 10 -9 0
8 -3 10 0
-4 -10 7 0
-1 10 -2 0
-9 -7 5 0
3 10 2 0
6 -5 7 0
4 -10 6 0
-5 -8 -10 0
6 10 9 0
-7 -10 5 0
2 -8 -7 0
-5 6 -7 0
-6 -4 -5 0
-2 -4 -5 0
-7 2 -6 0
-7 8 3 0
3 -10 -1 0
1 7 -10 0
9 -8 6 0
9 -2 5 0
-9 -3 6 0
-6 -8 10 0
-6 10 5 0
7 -4 1 0
-6 -4 -10 0
-8 -1 -4 0
-8 -3 -2 0
7 2 5 0
1 3 10 0
-5 -9 7 0
10 -6 9 0
-1 -3 -10 0
-6 2 -8 0
-1 6 5 0
8 10 3 0
9 1 10 0
1 -3 -7 0
-5 10 9 0
10 -9 -8 0
-9 -4 -10 0
6 -7 -9 0
5 -1 -6 0
8 5 9 0
-10 -9 3 0
-2 1 4 0
-6 9 10 0
6 1 -2 0
2 9 3 0
